db/data/1010519429263949028528247831801513715.z3.out
-------------------
2500.127575131
